c WARNING: for repeatability, setting FPU to use double precision
d VARIABLES            139150       
d CONSTRAINTS          583504       
c ============================[ Problem Statistics ]=============================
c |                                                                             |
c |  Number of variables:        139150                                         |
c |  Number of clauses:          583504                                         |
c |  Parse time:                   0.09 s                                       |
c |                                                                             |
c ============================[ Search Statistics ]==============================
c | Conflicts |          ORIGINAL         |          LEARNT          | Progress |
c |           |    Vars  Clauses Literals |    Limit  Clauses Lit/Cl |          |
c ===============================================================================
c |       100 |  108779   505282  1229645 |   185270       99     33 | 21.826 % |
c |       250 |  108779   505282  1229645 |   203797      249     63 | 21.826 % |
c |       475 |  108779   504302  1227293 |   224176      467    129 | 21.826 % |
c |       812 |  108779   504302  1227293 |   246594      804    136 | 21.826 % |
c |      1318 |  108779   504302  1227293 |   271253     1310    136 | 21.826 % |
c |      2077 |  108779   504302  1227293 |   298379     2069    150 | 21.826 % |
c |      3216 |  108779   504302  1227293 |   328217     3208    188 | 21.826 % |
c |      4924 |  108779   504302  1227293 |   361038     4916    187 | 21.826 % |
c |      7486 |  108779   504302  1227293 |   397142     7478    194 | 21.826 % |
c |     11330 |  108779   504302  1227293 |   436857    11322    208 | 21.826 % |
c |     17096 |  108779   504302  1227293 |   480542    17088    199 | 21.826 % |
c |     25745 |  108779   504302  1227293 |   528597    25737    190 | 21.826 % |
c |     38719 |  108779   504302  1227293 |   581456    38711    222 | 21.826 % |
c |     58180 |  108779   504302  1227293 |   639602    58172    221 | 21.826 % |
c |     87372 |  108779   504302  1227293 |   703562    87364    210 | 21.826 % |
c |    131161 |  108779   504302  1227293 |   773919   131153    194 | 21.826 % |
c |    196845 |  108779   504302  1227293 |   851310   196837    184 | 21.826 % |
c |    295371 |  108779   504302  1227293 |   936442   295363    188 | 21.826 % |
c |    443160 |  108779   504302  1227293 |  1030086   443152    193 | 21.826 % |
c |    664843 |  108779   504302  1227293 |  1133094   664835    193 | 21.826 % |
c |    997368 |  108779   504302  1227293 |  1246404   997360    180 | 21.826 % |
c |   1496156 |  108779   504302  1227293 |  1371044   246800    136 | 21.826 % |
c ===============================================================================
c restarts              : 4026
c conflicts             : 2036710        (1136 /sec)
c decisions             : 4616917        (0.00 % random) (2574 /sec)
c propagations          : 3504830336     (1954076 /sec)
c conflict literals     : 340514026      (41.74 % deleted)
d RESTARTS             4026
d FAILURES             2036710      
d NODES                4616917      
d BACKTRACKS           4616917      
d PROPAGATIONS         3504830336   
d NOGOODSIZE           167.19 
d MEMORY               1595.00 
d TIME                 1793.6 

s UNKNOWN
